
Log started (V12.6.3.0) Mon Jun 20 18:47:40 2016

CPLEX Error  1435: Line 5: Exponent '1e+40' out of range.
No file read.

Log started (V12.6.3.0) Wed Jun 22 16:54:53 2016


Problem 'a_linear.lp' read.
Read time = 0.00 sec. (0.03 ticks)
Tried aggregator 1 time.
MIP Presolve eliminated 199 rows and 216 columns.
MIP Presolve modified 19 coefficients.
Reduced MIP has 116 rows, 126 columns, and 354 nonzeros.
Reduced MIP has 126 binaries, 0 generals, 0 SOSs, and 0 indicators.
Presolve time = 0.00 sec. (0.41 ticks)
Found incumbent of value 727216.000000 after 0.01 sec. (0.60 ticks)
Probing time = 0.00 sec. (0.04 ticks)
Tried aggregator 1 time.
Reduced MIP has 116 rows, 126 columns, and 354 nonzeros.
Reduced MIP has 126 binaries, 0 generals, 0 SOSs, and 0 indicators.
Presolve time = 0.00 sec. (0.18 ticks)
Probing time = 0.00 sec. (0.04 ticks)
Clique table members: 6.
MIP emphasis: balance optimality and feasibility.
MIP search method: dynamic search.
Parallel mode: deterministic, using up to 32 threads.
Root relaxation solution time = 0.00 sec. (0.11 ticks)

        Nodes                                         Cuts/
   Node  Left     Objective  IInf  Best Integer    Best Bound    ItCnt     Gap

*     0+    0                       727216.0000        0.0000           100.00%

Root node processing (before b&c):
  Real time             =    0.02 sec. (1.10 ticks)
Parallel b&c, 32 threads:
  Real time             =    0.00 sec. (0.00 ticks)
  Sync time (average)   =    0.00 sec.
  Wait time (average)   =    0.00 sec.
                          ------------
Total (root+branch&cut) =    0.02 sec. (1.10 ticks)

Solution pool: 1 solution saved.

MIP - Integer optimal solution:  Objective =  0.0000000000e+00
Solution time =    0.04 sec.  Iterations = 0  Nodes = 0
Deterministic time = 1.10 ticks  (31.05 ticks/sec)


Incumbent solution
Variable Name           Solution Value
a_1_0#330                     1.000000
a_1_1#331                     1.000000
a_1_2#332                     1.000000
a_1_3#333                     1.000000
a_1_4#334                     1.000000
a_1_5#335                     1.000000
a_0_0m1_0#36                  1.000000
a_0_0m2_0#72                  1.000000
a_1_0m0_0#108                 1.000000
a_1_0m2_0#180                 1.000000
a_2_0m0_0#216                 1.000000
a_2_0m1_0#252                 1.000000
a_0_0m0_1#1                   1.000000
a_1_0m1_1#145                 1.000000
a_2_0m2_1#289                 1.000000
a_0_0m0_2#2                   1.000000
a_0_0m1_2#38                  1.000000
a_0_0m2_2#74                  1.000000
a_1_0m0_2#110                 1.000000
a_1_0m1_2#146                 1.000000
a_1_0m2_2#182                 1.000000
a_2_0m0_2#218                 1.000000
a_2_0m1_2#254                 1.000000
a_2_0m2_2#290                 1.000000
a_0_0m0_3#3                   1.000000
a_1_0m1_3#147                 1.000000
a_2_0m2_3#291                 1.000000
a_0_0m0_4#4                   1.000000
a_1_0m1_4#148                 1.000000
a_2_0m2_4#292                 1.000000
a_0_0m0_5#5                   1.000000
a_1_0m1_5#149                 1.000000
a_2_0m2_5#293                 1.000000
a_0_1m0_0#6                   1.000000
a_1_1m1_0#150                 1.000000
a_2_1m2_0#294                 1.000000
a_0_1m1_1#43                  1.000000
a_0_1m2_1#79                  1.000000
a_1_1m0_1#115                 1.000000
a_1_1m2_1#187                 1.000000
a_2_1m0_1#223                 1.000000
a_2_1m1_1#259                 1.000000
a_0_1m0_2#8                   1.000000
a_0_1m1_2#44                  1.000000
a_0_1m2_2#80                  1.000000
a_1_1m0_2#116                 1.000000
a_1_1m1_2#152                 1.000000
a_1_1m2_2#188                 1.000000
a_2_1m0_2#224                 1.000000
a_2_1m1_2#260                 1.000000
a_2_1m2_2#296                 1.000000
a_0_1m0_3#9                   1.000000
a_1_1m1_3#153                 1.000000
a_2_1m2_3#297                 1.000000
a_0_1m0_4#10                  1.000000
a_1_1m1_4#154                 1.000000
a_2_1m2_4#298                 1.000000
a_0_1m0_5#11                  1.000000
a_0_1m1_5#47                  1.000000
a_0_1m2_5#83                  1.000000
a_1_1m0_5#119                 1.000000
a_1_1m1_5#155                 1.000000
a_1_1m2_5#191                 1.000000
a_2_1m0_5#227                 1.000000
a_2_1m1_5#263                 1.000000
a_2_1m2_5#299                 1.000000
a_0_2m0_0#12                  1.000000
a_0_2m1_0#48                  1.000000
a_0_2m2_0#84                  1.000000
a_1_2m0_0#120                 1.000000
a_1_2m1_0#156                 1.000000
a_1_2m2_0#192                 1.000000
a_2_2m0_0#228                 1.000000
a_2_2m1_0#264                 1.000000
a_2_2m2_0#300                 1.000000
a_0_2m0_1#13                  1.000000
a_0_2m1_1#49                  1.000000
a_0_2m2_1#85                  1.000000
a_1_2m0_1#121                 1.000000
a_1_2m1_1#157                 1.000000
a_1_2m2_1#193                 1.000000
a_2_2m0_1#229                 1.000000
a_2_2m1_1#265                 1.000000
a_2_2m2_1#301                 1.000000
a_0_2m1_2#50                  1.000000
a_0_2m2_2#86                  1.000000
a_1_2m0_2#122                 1.000000
a_1_2m2_2#194                 1.000000
a_2_2m0_2#230                 1.000000
a_2_2m1_2#266                 1.000000
a_0_2m0_3#15                  1.000000
a_0_2m1_3#51                  1.000000
a_0_2m2_3#87                  1.000000
a_1_2m0_3#123                 1.000000
a_1_2m1_3#159                 1.000000
a_1_2m2_3#195                 1.000000
a_2_2m0_3#231                 1.000000
a_2_2m1_3#267                 1.000000
a_2_2m2_3#303                 1.000000
a_0_2m0_4#16                  1.000000
a_0_2m1_4#52                  1.000000
a_0_2m2_4#88                  1.000000
a_1_2m0_4#124                 1.000000
a_1_2m1_4#160                 1.000000
a_1_2m2_4#196                 1.000000
a_2_2m0_4#232                 1.000000
a_2_2m1_4#268                 1.000000
a_2_2m2_4#304                 1.000000
a_0_2m0_5#17                  1.000000
a_1_2m1_5#161                 1.000000
a_2_2m2_5#305                 1.000000
a_0_3m0_0#18                  1.000000
a_1_3m1_0#162                 1.000000
a_2_3m2_0#306                 1.000000
a_0_3m0_1#19                  1.000000
a_1_3m1_1#163                 1.000000
a_2_3m2_1#307                 1.000000
a_0_3m0_2#20                  1.000000
a_0_3m1_2#56                  1.000000
a_0_3m2_2#92                  1.000000
a_1_3m0_2#128                 1.000000
a_1_3m1_2#164                 1.000000
a_1_3m2_2#200                 1.000000
a_2_3m0_2#236                 1.000000
a_2_3m1_2#272                 1.000000
a_2_3m2_2#308                 1.000000
a_0_3m1_3#57                  1.000000
a_0_3m2_3#93                  1.000000
a_1_3m0_3#129                 1.000000
a_1_3m2_3#201                 1.000000
a_2_3m0_3#237                 1.000000
a_2_3m1_3#273                 1.000000
a_0_3m0_4#22                  1.000000
a_1_3m1_4#166                 1.000000
a_2_3m2_4#310                 1.000000
a_0_3m0_5#23                  1.000000
a_1_3m1_5#167                 1.000000
a_2_3m2_5#311                 1.000000
a_0_4m0_0#24                  1.000000
a_1_4m1_0#168                 1.000000
a_2_4m2_0#312                 1.000000
a_0_4m0_1#25                  1.000000
a_1_4m1_1#169                 1.000000
a_2_4m2_1#313                 1.000000
a_0_4m0_2#26                  1.000000
a_0_4m1_2#62                  1.000000
a_0_4m2_2#98                  1.000000
a_1_4m0_2#134                 1.000000
a_1_4m1_2#170                 1.000000
a_1_4m2_2#206                 1.000000
a_2_4m0_2#242                 1.000000
a_2_4m1_2#278                 1.000000
a_2_4m2_2#314                 1.000000
a_0_4m0_3#27                  1.000000
a_1_4m1_3#171                 1.000000
a_2_4m2_3#315                 1.000000
a_0_4m1_4#64                  1.000000
a_0_4m2_4#100                 1.000000
a_1_4m0_4#136                 1.000000
a_1_4m2_4#208                 1.000000
a_2_4m0_4#244                 1.000000
a_2_4m1_4#280                 1.000000
a_0_4m0_5#29                  1.000000
a_0_4m1_5#65                  1.000000
a_0_4m2_5#101                 1.000000
a_1_4m0_5#137                 1.000000
a_1_4m1_5#173                 1.000000
a_1_4m2_5#209                 1.000000
a_2_4m0_5#245                 1.000000
a_2_4m1_5#281                 1.000000
a_2_4m2_5#317                 1.000000
a_0_5m0_0#30                  1.000000
a_1_5m1_0#174                 1.000000
a_2_5m2_0#318                 1.000000
a_0_5m0_1#31                  1.000000
a_0_5m1_1#67                  1.000000
a_0_5m2_1#103                 1.000000
a_1_5m0_1#139                 1.000000
a_1_5m1_1#175                 1.000000
a_1_5m2_1#211                 1.000000
a_2_5m0_1#247                 1.000000
a_2_5m1_1#283                 1.000000
a_2_5m2_1#319                 1.000000
a_0_5m0_2#32                  1.000000
a_1_5m1_2#176                 1.000000
a_2_5m2_2#320                 1.000000
a_0_5m0_3#33                  1.000000
a_1_5m1_3#177                 1.000000
a_2_5m2_3#321                 1.000000
a_0_5m0_4#34                  1.000000
a_0_5m1_4#70                  1.000000
a_0_5m2_4#106                 1.000000
a_1_5m0_4#142                 1.000000
a_1_5m1_4#178                 1.000000
a_1_5m2_4#214                 1.000000
a_2_5m0_4#250                 1.000000
a_2_5m1_4#286                 1.000000
a_2_5m2_4#322                 1.000000
a_0_5m1_5#71                  1.000000
a_0_5m2_5#107                 1.000000
a_1_5m0_5#143                 1.000000
a_1_5m2_5#215                 1.000000
a_2_5m0_5#251                 1.000000
a_2_5m1_5#287                 1.000000
All other variables matching '*' are 0.

Log started (V12.6.3.0) Wed Jun 22 16:57:45 2016


Problem 'test_linear.lp' read.
Read time = 0.01 sec. (0.03 ticks)
Number of nonzeros in lower triangle of Q = 240
Using Approximate Minimum Degree ordering
Total time for automatic ordering = 0.00 sec. (0.01 ticks)
Summary statistics for factor of Q:
  Rows in Factor            = 28
  Integer space required    = 28
  Total non-zeros in factor = 406
  Total FP ops to factor    = 7714
CPLEX Error  5002: objective is not convex.
QP with an indefinite objective can be solved
to local optimality with optimality target 2,
or to global optimality with optimality target 3
Presolve time = 0.00 sec. (0.03 ticks)
Barrier time = 0.00 sec. (0.03 ticks)

Error termination, CPLEX Error  5002.
Solution time =    0.02 sec.
Deterministic time = 0.03 ticks  (1.83 ticks/sec)

No solution exists.

Log started (V12.6.3.0) Wed Jun 22 16:58:37 2016


Problem 'test_quadratic.lp' read.
Read time = 0.01 sec. (0.08 ticks)
Tried aggregator 1 time.
LP Presolve eliminated 276 rows and 304 columns.
Reduced LP has 491 rows, 508 columns, and 1496 nonzeros.
Presolve time = 0.00 sec. (0.38 ticks)
Initializing dual steep norms . . .

Iteration log . . .
Iteration:     1   Dual objective     =             0.000000

Dual simplex - Optimal:  Objective =  0.0000000000e+00
Solution time =    0.01 sec.  Iterations = 21 (0)
Deterministic time = 1.28 ticks  (158.46 ticks/sec)


Variable Name           Solution Value
a_0_0#784                     0.500000
a_1_0#791                     0.376638
a_3_0#805                     0.123362
a_0_1#785                     0.500000
a_2_1#799                     0.500000
a_0_2#786                     0.500000
a_1_2#793                     0.500000
a_0_3#787                     0.500000
a_1_3#794                     0.500000
a_1_4#795                     0.500000
a_2_4#802                     0.500000
a_1_5#796                     0.500000
a_2_5#803                     0.500000
a_0_6#790                     0.500000
a_1_6#797                     0.500000
a_0_0m1_0#49                  1.000000
a_0_0m2_0#98                  1.000000
a_0_0m3_0#147                 1.000000
a_1_0m0_0#196                 1.000000
a_1_0m2_0#294                 1.000000
a_1_0m3_0#343                 1.000000
a_2_0m0_0#392                 1.000000
a_2_0m1_0#441                 1.000000
a_2_0m3_0#539                 1.000000
a_3_0m0_0#588                 1.000000
a_3_0m1_0#637                 1.000000
a_3_0m2_0#686                 1.000000
a_0_0m0_1#1                   1.000000
a_1_0m1_1#246                 1.000000
a_2_0m2_1#491                 1.000000
a_3_0m3_1#736                 1.000000
a_0_0m0_2#2                   1.000000
a_1_0m1_2#247                 1.000000
a_2_0m2_2#492                 1.000000
a_3_0m3_2#737                 1.000000
a_0_0m0_3#3                   1.000000
a_1_0m1_3#248                 1.000000
a_2_0m2_3#493                 1.000000
a_3_0m3_3#738                 1.000000
a_0_0m0_4#4                   1.000000
a_1_0m1_4#249                 1.000000
a_2_0m2_4#494                 1.000000
a_3_0m3_4#739                 1.000000
a_0_0m0_5#5                   1.000000
a_1_0m1_5#250                 1.000000
a_2_0m2_5#495                 1.000000
a_3_0m3_5#740                 1.000000
a_0_0m0_6#6                   1.000000
a_1_0m1_6#251                 1.000000
a_2_0m2_6#496                 1.000000
a_3_0m3_6#741                 1.000000
a_0_1m0_0#7                   1.000000
a_1_1m1_0#252                 1.000000
a_2_1m2_0#497                 1.000000
a_3_1m3_0#742                 1.000000
a_0_1m1_1#57                  1.000000
a_0_1m2_1#106                 1.000000
a_0_1m3_1#155                 1.000000
a_1_1m0_1#204                 1.000000
a_1_1m2_1#302                 1.000000
a_1_1m3_1#351                 1.000000
a_2_1m0_1#400                 1.000000
a_2_1m1_1#449                 1.000000
a_2_1m3_1#547                 1.000000
a_3_1m0_1#596                 1.000000
a_3_1m1_1#645                 1.000000
a_3_1m2_1#694                 1.000000
a_0_1m0_2#9                   1.000000
a_1_1m1_2#254                 1.000000
a_2_1m2_2#499                 1.000000
a_3_1m3_2#744                 1.000000
a_0_1m0_3#10                  1.000000
a_1_1m1_3#255                 1.000000
a_2_1m2_3#500                 1.000000
a_3_1m3_3#745                 1.000000
a_0_1m0_4#11                  1.000000
a_1_1m1_4#256                 1.000000
a_2_1m2_4#501                 1.000000
a_3_1m3_4#746                 1.000000
a_0_1m0_5#12                  1.000000
a_1_1m1_5#257                 1.000000
a_2_1m2_5#502                 1.000000
a_3_1m3_5#747                 1.000000
a_0_1m0_6#13                  1.000000
a_1_1m1_6#258                 1.000000
a_2_1m2_6#503                 1.000000
a_3_1m3_6#748                 1.000000
a_0_2m0_0#14                  1.000000
a_1_2m1_0#259                 1.000000
a_2_2m2_0#504                 1.000000
a_3_2m3_0#749                 1.000000
a_0_2m0_1#15                  1.000000
a_1_2m1_1#260                 1.000000
a_2_2m2_1#505                 1.000000
a_3_2m3_1#750                 1.000000
a_0_2m1_2#65                  1.000000
a_0_2m2_2#114                 1.000000
a_0_2m3_2#163                 1.000000
a_1_2m0_2#212                 1.000000
a_1_2m2_2#310                 1.000000
a_1_2m3_2#359                 1.000000
a_2_2m0_2#408                 1.000000
a_2_2m1_2#457                 1.000000
a_2_2m3_2#555                 1.000000
a_3_2m0_2#604                 1.000000
a_3_2m1_2#653                 1.000000
a_3_2m2_2#702                 1.000000
a_0_2m0_3#17                  1.000000
a_1_2m1_3#262                 1.000000
a_2_2m2_3#507                 1.000000
a_3_2m3_3#752                 1.000000
a_0_2m0_4#18                  1.000000
a_1_2m1_4#263                 1.000000
a_2_2m2_4#508                 1.000000
a_3_2m3_4#753                 1.000000
a_0_2m0_5#19                  1.000000
a_1_2m1_5#264                 1.000000
a_2_2m2_5#509                 1.000000
a_3_2m3_5#754                 1.000000
a_0_2m0_6#20                  1.000000
a_1_2m1_6#265                 1.000000
a_2_2m2_6#510                 1.000000
a_3_2m3_6#755                 1.000000
a_0_3m0_0#21                  1.000000
a_1_3m1_0#266                 1.000000
a_2_3m2_0#511                 1.000000
a_3_3m3_0#756                 1.000000
a_0_3m0_1#22                  1.000000
a_1_3m1_1#267                 1.000000
a_2_3m2_1#512                 1.000000
a_3_3m3_1#757                 1.000000
a_0_3m0_2#23                  1.000000
a_1_3m1_2#268                 1.000000
a_2_3m2_2#513                 1.000000
a_3_3m3_2#758                 1.000000
a_0_3m1_3#73                  1.000000
a_0_3m2_3#122                 1.000000
a_0_3m3_3#171                 1.000000
a_1_3m0_3#220                 1.000000
a_1_3m2_3#318                 1.000000
a_1_3m3_3#367                 1.000000
a_2_3m0_3#416                 1.000000
a_2_3m1_3#465                 1.000000
a_2_3m3_3#563                 1.000000
a_3_3m0_3#612                 1.000000
a_3_3m1_3#661                 1.000000
a_3_3m2_3#710                 1.000000
a_0_3m0_4#25                  1.000000
a_1_3m1_4#270                 1.000000
a_2_3m2_4#515                 1.000000
a_3_3m3_4#760                 1.000000
a_0_3m0_5#26                  1.000000
a_1_3m1_5#271                 1.000000
a_2_3m2_5#516                 1.000000
a_3_3m3_5#761                 1.000000
a_0_3m0_6#27                  1.000000
a_1_3m1_6#272                 1.000000
a_2_3m2_6#517                 1.000000
a_3_3m3_6#762                 1.000000
a_0_4m0_0#28                  1.000000
a_1_4m1_0#273                 1.000000
a_2_4m2_0#518                 1.000000
a_3_4m3_0#763                 1.000000
a_0_4m0_1#29                  1.000000
a_1_4m1_1#274                 1.000000
a_2_4m2_1#519                 1.000000
a_3_4m3_1#764                 1.000000
a_0_4m0_2#30                  1.000000
a_1_4m1_2#275                 1.000000
a_2_4m2_2#520                 1.000000
a_3_4m3_2#765                 1.000000
a_0_4m0_3#31                  1.000000
a_1_4m1_3#276                 1.000000
a_2_4m2_3#521                 1.000000
a_3_4m3_3#766                 1.000000
a_0_4m1_4#81                  1.000000
a_0_4m2_4#130                 1.000000
a_0_4m3_4#179                 1.000000
a_1_4m0_4#228                 1.000000
a_1_4m2_4#326                 1.000000
a_1_4m3_4#375                 1.000000
a_2_4m0_4#424                 1.000000
a_2_4m1_4#473                 1.000000
a_2_4m3_4#571                 1.000000
a_3_4m0_4#620                 1.000000
a_3_4m1_4#669                 1.000000
a_3_4m2_4#718                 1.000000
a_0_4m0_5#33                  1.000000
a_1_4m1_5#278                 1.000000
a_2_4m2_5#523                 1.000000
a_3_4m3_5#768                 1.000000
a_0_4m0_6#34                  1.000000
a_1_4m1_6#279                 1.000000
a_2_4m2_6#524                 1.000000
a_3_4m3_6#769                 1.000000
a_0_5m0_0#35                  1.000000
a_1_5m1_0#280                 1.000000
a_2_5m2_0#525                 1.000000
a_3_5m3_0#770                 1.000000
a_0_5m0_1#36                  1.000000
a_1_5m1_1#281                 1.000000
a_2_5m2_1#526                 1.000000
a_3_5m3_1#771                 1.000000
a_0_5m0_2#37                  1.000000
a_1_5m1_2#282                 1.000000
a_2_5m2_2#527                 1.000000
a_3_5m3_2#772                 1.000000
a_0_5m0_3#38                  1.000000
a_1_5m1_3#283                 1.000000
a_2_5m2_3#528                 1.000000
a_3_5m3_3#773                 1.000000
a_0_5m0_4#39                  1.000000
a_1_5m1_4#284                 1.000000
a_2_5m2_4#529                 1.000000
a_3_5m3_4#774                 1.000000
a_0_5m1_5#89                  1.000000
a_0_5m2_5#138                 1.000000
a_0_5m3_5#187                 1.000000
a_1_5m0_5#236                 1.000000
a_1_5m2_5#334                 1.000000
a_1_5m3_5#383                 1.000000
a_2_5m0_5#432                 1.000000
a_2_5m1_5#481                 1.000000
a_2_5m3_5#579                 1.000000
a_3_5m0_5#628                 1.000000
a_3_5m1_5#677                 1.000000
a_3_5m2_5#726                 1.000000
a_0_5m0_6#41                  1.000000
a_0_5m1_6#90                  1.000000
a_0_5m2_6#139                 1.000000
a_0_5m3_6#188                 1.000000
a_1_5m0_6#237                 1.000000
a_1_5m1_6#286                 1.000000
a_1_5m2_6#335                 1.000000
a_1_5m3_6#384                 1.000000
a_2_5m0_6#433                 1.000000
a_2_5m1_6#482                 1.000000
a_2_5m2_6#531                 1.000000
a_2_5m3_6#580                 1.000000
a_3_5m0_6#629                 1.000000
a_3_5m1_6#678                 1.000000
a_3_5m2_6#727                 1.000000
a_3_5m3_6#776                 1.000000
a_0_6m0_0#42                  1.000000
a_1_6m1_0#287                 1.000000
a_2_6m2_0#532                 1.000000
a_3_6m3_0#777                 1.000000
a_0_6m0_1#43                  1.000000
a_1_6m1_1#288                 1.000000
a_2_6m2_1#533                 1.000000
a_3_6m3_1#778                 1.000000
a_0_6m0_2#44                  1.000000
a_1_6m1_2#289                 1.000000
a_2_6m2_2#534                 1.000000
a_3_6m3_2#779                 1.000000
a_0_6m0_3#45                  1.000000
a_1_6m1_3#290                 1.000000
a_2_6m2_3#535                 1.000000
a_3_6m3_3#780                 1.000000
a_0_6m0_4#46                  1.000000
a_1_6m1_4#291                 1.000000
a_2_6m2_4#536                 1.000000
a_3_6m3_4#781                 1.000000
a_0_6m0_5#47                  1.000000
a_0_6m1_5#96                  1.000000
a_0_6m2_5#145                 1.000000
a_0_6m3_5#194                 1.000000
a_1_6m0_5#243                 1.000000
a_1_6m1_5#292                 1.000000
a_1_6m2_5#341                 1.000000
a_1_6m3_5#390                 1.000000
a_2_6m0_5#439                 1.000000
a_2_6m1_5#488                 1.000000
a_2_6m2_5#537                 1.000000
a_2_6m3_5#586                 1.000000
a_3_6m0_5#635                 1.000000
a_3_6m1_5#684                 1.000000
a_3_6m2_5#733                 1.000000
a_3_6m3_5#782                 1.000000
a_0_6m1_6#97                  1.000000
a_0_6m2_6#146                 1.000000
a_0_6m3_6#195                 1.000000
a_1_6m0_6#244                 1.000000
a_1_6m2_6#342                 1.000000
a_1_6m3_6#391                 1.000000
a_2_6m0_6#440                 1.000000
a_2_6m1_6#489                 1.000000
a_2_6m3_6#587                 1.000000
a_3_6m0_6#636                 1.000000
a_3_6m1_6#685                 1.000000
a_3_6m2_6#734                 1.000000
All other variables matching '*' are 0.
